\ENCODING=ISO-8859-1
\Problem name: ilog.cplex

Maximize
 obj: 805 x(0)#0 + 828 x(1)#1 + 860 x(2)#2 + 794 x(3)#3 + 714 x(4)#4
      + 970 x(5)#5 + 593 x(6)#6 + 578 x(7)#7 + 653 x(8)#8 + 733 x(9)#9
      + 739 x(10)#10 + 717 x(11)#11 + 756 x(12)#12 + 868 x(13)#13
      + 732 x(14)#14 + 603 x(15)#15 + 901 x(16)#16 + 628 x(17)#17
      + 612 x(18)#18 + 316 x(19)#19 + 519 x(20)#20 + 887 x(21)#21
      + 805 x(22)#22 + 652 x(23)#23 + 711 x(24)#24 + 675 x(25)#25
      + 710 x(26)#26 + 1086 x(27)#27 + 739 x(28)#28 + 833 x(29)#29
      + 997 x(30)#30 + 680 x(31)#31 + 749 x(32)#32 + 956 x(33)#33
      + 508 x(34)#34 + 770 x(35)#35 + 634 x(36)#36 + 557 x(37)#37
      + 628 x(38)#38 + 1002 x(39)#39 + 699 x(40)#40 + 986 x(41)#41
      + 833 x(42)#42 + 1052 x(43)#43 + 1102 x(44)#44 + 1012 x(45)#45
      + 831 x(46)#46 + 840 x(47)#47 + 802 x(48)#48 + 1053 x(49)#49
      + 923 x(50)#50 + 668 x(51)#51 + 493 x(52)#52 + 957 x(53)#53
      + 1160 x(54)#54 + 884 x(55)#55 + 831 x(56)#56 + 538 x(57)#57
      + 653 x(58)#58 + 424 x(59)#59 + 883 x(60)#60 + 782 x(61)#61
      + 900 x(62)#62 + 755 x(63)#63 + 709 x(64)#64 + 981 x(65)#65
      + 736 x(66)#66 + 873 x(67)#67 + 704 x(68)#68 + 358 x(69)#69
      + 664 x(70)#70 + 837 x(71)#71 + 465 x(72)#72 + 1025 x(73)#73
      + 898 x(74)#74 + 658 x(75)#75 + 764 x(76)#76 + 614 x(77)#77
      + 523 x(78)#78 + 499 x(79)#79 + 1042 x(80)#80 + 611 x(81)#81
      + 902 x(82)#82 + 230 x(83)#83 + 681 x(84)#84 + 832 x(85)#85
      + 729 x(86)#86 + 568 x(87)#87 + 842 x(88)#88 + 812 x(89)#89
      + 742 x(90)#90 + 764 x(91)#91 + 693 x(92)#92 + 555 x(93)#93
      + 428 x(94)#94 + 763 x(95)#95 + 1163 x(96)#96 + 603 x(97)#97
      + 1183 x(98)#98 + 905 x(99)#99
Subject To
 c1: 34 x(0)#0 + 668 x(1)#1 + 13 x(2)#2 + 945 x(3)#3 + 650 x(4)#4 + 388 x(5)#5
     + 111 x(6)#6 + 333 x(7)#7 + 244 x(8)#8 + 671 x(9)#9 + 426 x(10)#10
     + 304 x(11)#11 + 513 x(12)#12 + 508 x(13)#13 + 93 x(14)#14 + 32 x(15)#15
     + 562 x(16)#16 + 658 x(17)#17 + 817 x(18)#18 + 387 x(19)#19 + 200 x(20)#20
     + 688 x(21)#21 + 190 x(22)#22 + 277 x(23)#23 + 299 x(24)#24 + 315 x(25)#25
     + 450 x(26)#26 + 817 x(27)#27 + 154 x(28)#28 + 705 x(29)#29 + 377 x(30)#30
     + 489 x(31)#31 + 239 x(32)#32 + 399 x(33)#33 + 220 x(34)#34 + 582 x(35)#35
     + 208 x(36)#36 + 160 x(37)#37 + 457 x(38)#38 + 845 x(39)#39 + 949 x(40)#40
     + 751 x(41)#41 + 174 x(42)#42 + 888 x(43)#43 + 909 x(44)#44 + 947 x(45)#45
     + 604 x(46)#46 + 216 x(47)#47 + 734 x(48)#48 + 440 x(49)#49 + 165 x(50)#50
     + 715 x(51)#51 + 361 x(52)#52 + 77 x(53)#53 + 830 x(54)#54 + 921 x(55)#55
     + 522 x(56)#56 + 729 x(57)#57 + 955 x(58)#58 + 870 x(59)#59 + 128 x(60)#60
     + 179 x(61)#61 + 941 x(62)#62 + 568 x(63)#63 + 88 x(64)#64 + 798 x(65)#65
     + 132 x(66)#66 + 653 x(67)#67 + 649 x(68)#68 + 442 x(69)#69 + 509 x(70)#70
     + 988 x(71)#71 + 128 x(72)#72 + 985 x(73)#73 + 25 x(74)#74 + 488 x(75)#75
     + 954 x(76)#76 + 686 x(77)#77 + 635 x(78)#78 + 419 x(79)#79 + 915 x(80)#80
     + 238 x(81)#81 + 967 x(82)#82 + 161 x(83)#83 + 809 x(84)#84 + 43 x(85)#85
     + 803 x(86)#86 + 416 x(87)#87 + 943 x(88)#88 + 4 x(89)#89 + 319 x(90)#90
     + 960 x(91)#91 + 386 x(92)#92 + 911 x(93)#93 + 148 x(94)#94 + 598 x(95)#95
     + 238 x(96)#96 + 569 x(97)#97 + 934 x(98)#98 + 488 x(99)#99 <= 37823
 c2: 918 x(0)#0 + 667 x(1)#1 + 113 x(2)#2 + 448 x(3)#3 + 502 x(4)#4
     + 605 x(5)#5 + 756 x(6)#6 + 914 x(7)#7 + 328 x(8)#8 + 975 x(9)#9
     + 832 x(10)#10 + 563 x(11)#11 + 232 x(12)#12 + 388 x(13)#13 + 471 x(14)#14
     + 823 x(15)#15 + 840 x(16)#16 + 461 x(17)#17 + 61 x(18)#18 + 25 x(19)#19
     + 443 x(20)#20 + 158 x(21)#21 + 536 x(22)#22 + 511 x(23)#23 + 347 x(24)#24
     + 434 x(25)#25 + 598 x(26)#26 + 997 x(27)#27 + 824 x(28)#28 + 680 x(29)#29
     + 938 x(30)#30 + 183 x(31)#31 + 358 x(32)#32 + 379 x(33)#33 + 862 x(34)#34
     + 67 x(35)#35 + 574 x(36)#36 + 642 x(37)#37 + 344 x(38)#38 + 740 x(39)#39
     + 416 x(40)#40 + 868 x(41)#41 + 285 x(42)#42 + 792 x(43)#43 + 365 x(44)#44
     + 721 x(45)#45 + 517 x(46)#46 + 100 x(47)#47 + 615 x(48)#48 + 777 x(49)#49
     + 532 x(50)#50 + 468 x(51)#51 + 149 x(52)#52 + 933 x(53)#53 + 956 x(54)#54
     + 324 x(55)#55 + 824 x(56)#56 + 399 x(57)#57 + 867 x(58)#58 + 101 x(59)#59
     + 535 x(60)#60 + 594 x(61)#61 + 816 x(62)#62 + 208 x(63)#63 + 482 x(64)#64
     + 697 x(65)#65 + 20 x(66)#66 + 676 x(67)#67 + 632 x(68)#68 + 321 x(69)#69
     + 515 x(70)#70 + 152 x(71)#71 + x(72)#72 + 142 x(73)#73 + 824 x(74)#74
     + 400 x(75)#75 + 243 x(76)#76 + 870 x(77)#77 + 74 x(78)#78 + 232 x(79)#79
     + 230 x(80)#80 + 623 x(81)#81 + 887 x(82)#82 + 153 x(83)#83 + 742 x(84)#84
     + 338 x(85)#85 + 524 x(86)#86 + 733 x(87)#87 + 267 x(88)#88 + 868 x(89)#89
     + 42 x(90)#90 + 700 x(91)#91 + 74 x(92)#92 + 40 x(93)#93 + 296 x(94)#94
     + 805 x(95)#95 + 969 x(96)#96 + 230 x(97)#97 + 900 x(98)#98 + 492 x(99)#99
     <= 38170
 c3: 517 x(0)#0 + 434 x(1)#1 + 662 x(2)#2 + 941 x(3)#3 + 732 x(4)#4
     + 149 x(5)#5 + 258 x(6)#6 + 676 x(7)#7 + 650 x(8)#8 + 195 x(9)#9
     + 931 x(10)#10 + 995 x(11)#11 + 716 x(12)#12 + 745 x(13)#13 + 8 x(14)#14
     + 408 x(15)#15 + 221 x(16)#16 + 876 x(17)#17 + 544 x(18)#18 + 380 x(19)#19
     + 364 x(20)#20 + 18 x(21)#21 + 421 x(22)#22 + 812 x(23)#23 + 2 x(24)#24
     + 546 x(25)#25 + 2 x(26)#26 + 589 x(27)#27 + 668 x(28)#28 + 394 x(29)#29
     + 484 x(30)#30 + 489 x(31)#31 + 85 x(32)#32 + 732 x(33)#33 + 2 x(34)#34
     + 132 x(35)#35 + 496 x(36)#36 + 888 x(37)#37 + 603 x(38)#38 + 829 x(39)#39
     + 80 x(40)#40 + 784 x(41)#41 + 11 x(42)#42 + 541 x(43)#43 + 737 x(44)#44
     + 997 x(45)#45 + 518 x(46)#46 + 553 x(47)#47 + 603 x(48)#48 + 620 x(49)#49
     + 913 x(50)#50 + 512 x(51)#51 + 665 x(52)#52 + 673 x(53)#53 + 739 x(54)#54
     + 604 x(55)#55 + 358 x(56)#56 + 63 x(57)#57 + 382 x(58)#58 + 176 x(59)#59
     + 58 x(60)#60 + 485 x(61)#61 + 501 x(62)#62 + 565 x(63)#63 + 511 x(64)#64
     + 768 x(65)#65 + 645 x(66)#66 + 891 x(67)#67 + 46 x(68)#68 + 8 x(69)#69
     + 387 x(70)#70 + 754 x(71)#71 + 656 x(72)#72 + 524 x(73)#73 + 825 x(74)#74
     + 559 x(75)#75 + 126 x(76)#76 + 420 x(77)#77 + 16 x(78)#78 + 293 x(79)#79
     + 919 x(80)#80 + 66 x(81)#81 + 653 x(82)#82 + 449 x(83)#83 + 125 x(84)#84
     + 536 x(85)#85 + 243 x(86)#86 + 699 x(87)#87 + 966 x(88)#88 + 112 x(89)#89
     + 12 x(90)#90 + 94 x(91)#91 + 859 x(92)#92 + 750 x(93)#93 + 655 x(94)#94
     + 766 x(95)#95 + 987 x(96)#96 + 54 x(97)#97 + 992 x(98)#98 + 692 x(99)#99
     <= 37343
 c4: 301 x(0)#0 + 500 x(1)#1 + 810 x(2)#2 + 339 x(3)#3 + 207 x(4)#4
     + 568 x(5)#5 + 245 x(6)#6 + 40 x(7)#7 + 882 x(8)#8 + 629 x(9)#9
     + 80 x(10)#10 + 91 x(11)#11 + 521 x(12)#12 + 510 x(13)#13 + 845 x(14)#14
     + 279 x(15)#15 + 629 x(16)#16 + 192 x(17)#17 + 927 x(18)#18 + 180 x(19)#19
     + 739 x(20)#20 + 477 x(21)#21 + 60 x(22)#22 + 103 x(23)#23 + 120 x(24)#24
     + 478 x(25)#25 + 162 x(26)#26 + 670 x(27)#27 + 490 x(28)#28 + 669 x(29)#29
     + 571 x(30)#30 + 542 x(31)#31 + 885 x(32)#32 + 774 x(33)#33 + 352 x(34)#34
     + 856 x(35)#35 + 423 x(36)#36 + 795 x(37)#37 + 199 x(38)#38 + 584 x(39)#39
     + 941 x(40)#40 + 426 x(41)#41 + 724 x(42)#42 + 563 x(43)#43 + 546 x(44)#44
     + 279 x(45)#45 + 465 x(46)#46 + 467 x(47)#47 + 4 x(48)#48 + 336 x(49)#49
     + 989 x(50)#50 + 580 x(51)#51 + 836 x(52)#52 + 901 x(53)#53 + 517 x(54)#54
     + 572 x(55)#55 + 592 x(56)#56 + 676 x(57)#57 + 142 x(58)#58 + 236 x(59)#59
     + 315 x(60)#60 + 886 x(61)#61 + 38 x(62)#62 + 57 x(63)#63 + 287 x(64)#64
     + 116 x(65)#65 + 933 x(66)#66 + 802 x(67)#67 + 704 x(68)#68 + 350 x(69)#69
     + 46 x(70)#70 + 95 x(71)#71 + 104 x(72)#72 + 953 x(73)#73 + 245 x(74)#74
     + 549 x(75)#75 + 682 x(76)#76 + 894 x(77)#77 + 313 x(78)#78 + 780 x(79)#79
     + 703 x(80)#80 + 82 x(81)#81 + 70 x(82)#82 + 125 x(83)#83 + 738 x(84)#84
     + 929 x(85)#85 + 505 x(86)#86 + 707 x(87)#87 + 196 x(88)#88 + 162 x(89)#89
     + 994 x(90)#90 + 113 x(91)#91 + 774 x(92)#92 + 545 x(93)#93 + 104 x(94)#94
     + 925 x(95)#95 + 931 x(96)#96 + 694 x(97)#97 + 217 x(98)#98 + 127 x(99)#99
     <= 36230
 c5: 305 x(0)#0 + 641 x(1)#1 + 668 x(2)#2 + 781 x(3)#3 + 643 x(4)#4
     + 770 x(5)#5 + 380 x(6)#6 + 42 x(7)#7 + 864 x(8)#8 + 211 x(9)#9
     + 548 x(10)#10 + 290 x(11)#11 + 120 x(12)#12 + 420 x(13)#13 + 91 x(14)#14
     + 189 x(15)#15 + 172 x(16)#16 + 833 x(17)#17 + 503 x(18)#18 + 254 x(19)#19
     + 251 x(20)#20 + 933 x(21)#21 + 328 x(22)#22 + 707 x(23)#23 + 964 x(24)#24
     + 446 x(25)#25 + 379 x(26)#26 + 603 x(27)#27 + 639 x(28)#28 + 790 x(29)#29
     + 611 x(30)#30 + 473 x(31)#31 + 266 x(32)#32 + 108 x(33)#33 + 840 x(34)#34
     + 691 x(35)#35 + 461 x(36)#36 + 14 x(37)#37 + 607 x(38)#38 + 792 x(39)#39
     + 580 x(40)#40 + 509 x(41)#41 + 692 x(42)#42 + 909 x(43)#43 + 511 x(44)#44
     + 454 x(45)#45 + 178 x(46)#46 + 678 x(47)#47 + 187 x(48)#48 + 917 x(49)#49
     + 814 x(50)#50 + 797 x(51)#51 + 14 x(52)#52 + 104 x(53)#53 + 495 x(54)#54
     + 580 x(55)#55 + 301 x(56)#56 + 420 x(57)#57 + 526 x(58)#58 + 690 x(59)#59
     + 942 x(60)#60 + 98 x(61)#61 + 965 x(62)#62 + 399 x(63)#63 + 108 x(64)#64
     + 382 x(65)#65 + 929 x(66)#66 + 943 x(67)#67 + 630 x(68)#68 + 541 x(69)#69
     + 151 x(70)#70 + 937 x(71)#71 + 406 x(72)#72 + 405 x(73)#73 + 856 x(74)#74
     + 621 x(75)#75 + 371 x(76)#76 + 170 x(77)#77 + 668 x(78)#78 + 111 x(79)#79
     + 614 x(80)#80 + 748 x(81)#81 + 103 x(82)#82 + 222 x(83)#83 + 140 x(84)#84
     + 433 x(85)#85 + 54 x(86)#86 + 211 x(87)#87 + 680 x(88)#88 + 796 x(89)#89
     + 105 x(90)#90 + 553 x(91)#91 + 997 x(92)#92 + 194 x(93)#93 + 870 x(94)#94
     + 457 x(95)#95 + 206 x(96)#96 + 432 x(97)#97 + 432 x(98)#98 + 963 x(99)#99
     <= 37370
Bounds
 0 <= x(0)#0 <= 1
 0 <= x(1)#1 <= 1
 0 <= x(2)#2 <= 1
 0 <= x(3)#3 <= 1
 0 <= x(4)#4 <= 1
 0 <= x(5)#5 <= 1
 0 <= x(6)#6 <= 1
 0 <= x(7)#7 <= 1
 0 <= x(8)#8 <= 1
 0 <= x(9)#9 <= 1
 0 <= x(10)#10 <= 1
 0 <= x(11)#11 <= 1
 0 <= x(12)#12 <= 1
 0 <= x(13)#13 <= 1
 0 <= x(14)#14 <= 1
 0 <= x(15)#15 <= 1
 0 <= x(16)#16 <= 1
 0 <= x(17)#17 <= 1
 0 <= x(18)#18 <= 1
 0 <= x(19)#19 <= 1
 0 <= x(20)#20 <= 1
 0 <= x(21)#21 <= 1
 0 <= x(22)#22 <= 1
 0 <= x(23)#23 <= 1
 0 <= x(24)#24 <= 1
 0 <= x(25)#25 <= 1
 0 <= x(26)#26 <= 1
 0 <= x(27)#27 <= 1
 0 <= x(28)#28 <= 1
 0 <= x(29)#29 <= 1
 0 <= x(30)#30 <= 1
 0 <= x(31)#31 <= 1
 0 <= x(32)#32 <= 1
 0 <= x(33)#33 <= 1
 0 <= x(34)#34 <= 1
 0 <= x(35)#35 <= 1
 0 <= x(36)#36 <= 1
 0 <= x(37)#37 <= 1
 0 <= x(38)#38 <= 1
 0 <= x(39)#39 <= 1
 0 <= x(40)#40 <= 1
 0 <= x(41)#41 <= 1
 0 <= x(42)#42 <= 1
 0 <= x(43)#43 <= 1
 0 <= x(44)#44 <= 1
 0 <= x(45)#45 <= 1
 0 <= x(46)#46 <= 1
 0 <= x(47)#47 <= 1
 0 <= x(48)#48 <= 1
 0 <= x(49)#49 <= 1
 0 <= x(50)#50 <= 1
 0 <= x(51)#51 <= 1
 0 <= x(52)#52 <= 1
 0 <= x(53)#53 <= 1
 0 <= x(54)#54 <= 1
 0 <= x(55)#55 <= 1
 0 <= x(56)#56 <= 1
 0 <= x(57)#57 <= 1
 0 <= x(58)#58 <= 1
 0 <= x(59)#59 <= 1
 0 <= x(60)#60 <= 1
 0 <= x(61)#61 <= 1
 0 <= x(62)#62 <= 1
 0 <= x(63)#63 <= 1
 0 <= x(64)#64 <= 1
 0 <= x(65)#65 <= 1
 0 <= x(66)#66 <= 1
 0 <= x(67)#67 <= 1
 0 <= x(68)#68 <= 1
 0 <= x(69)#69 <= 1
 0 <= x(70)#70 <= 1
 0 <= x(71)#71 <= 1
 0 <= x(72)#72 <= 1
 0 <= x(73)#73 <= 1
 0 <= x(74)#74 <= 1
 0 <= x(75)#75 <= 1
 0 <= x(76)#76 <= 1
 0 <= x(77)#77 <= 1
 0 <= x(78)#78 <= 1
 0 <= x(79)#79 <= 1
 0 <= x(80)#80 <= 1
 0 <= x(81)#81 <= 1
 0 <= x(82)#82 <= 1
 0 <= x(83)#83 <= 1
 0 <= x(84)#84 <= 1
 0 <= x(85)#85 <= 1
 0 <= x(86)#86 <= 1
 0 <= x(87)#87 <= 1
 0 <= x(88)#88 <= 1
 0 <= x(89)#89 <= 1
 0 <= x(90)#90 <= 1
 0 <= x(91)#91 <= 1
 0 <= x(92)#92 <= 1
 0 <= x(93)#93 <= 1
 0 <= x(94)#94 <= 1
 0 <= x(95)#95 <= 1
 0 <= x(96)#96 <= 1
 0 <= x(97)#97 <= 1
 0 <= x(98)#98 <= 1
 0 <= x(99)#99 <= 1
Generals
 x(0)#0  x(1)#1  x(2)#2  x(3)#3  x(4)#4  x(5)#5  x(6)#6  x(7)#7  x(8)#8 
 x(9)#9  x(10)#10  x(11)#11  x(12)#12  x(13)#13  x(14)#14  x(15)#15  x(16)#16 
 x(17)#17  x(18)#18  x(19)#19  x(20)#20  x(21)#21  x(22)#22  x(23)#23 
 x(24)#24  x(25)#25  x(26)#26  x(27)#27  x(28)#28  x(29)#29  x(30)#30 
 x(31)#31  x(32)#32  x(33)#33  x(34)#34  x(35)#35  x(36)#36  x(37)#37 
 x(38)#38  x(39)#39  x(40)#40  x(41)#41  x(42)#42  x(43)#43  x(44)#44 
 x(45)#45  x(46)#46  x(47)#47  x(48)#48  x(49)#49  x(50)#50  x(51)#51 
 x(52)#52  x(53)#53  x(54)#54  x(55)#55  x(56)#56  x(57)#57  x(58)#58 
 x(59)#59  x(60)#60  x(61)#61  x(62)#62  x(63)#63  x(64)#64  x(65)#65 
 x(66)#66  x(67)#67  x(68)#68  x(69)#69  x(70)#70  x(71)#71  x(72)#72 
 x(73)#73  x(74)#74  x(75)#75  x(76)#76  x(77)#77  x(78)#78  x(79)#79 
 x(80)#80  x(81)#81  x(82)#82  x(83)#83  x(84)#84  x(85)#85  x(86)#86 
 x(87)#87  x(88)#88  x(89)#89  x(90)#90  x(91)#91  x(92)#92  x(93)#93 
 x(94)#94  x(95)#95  x(96)#96  x(97)#97  x(98)#98  x(99)#99 
End
